%Mem=5GB
%NprocShared=8
%RWF=tdp_preopt_charge
%NoSave
%Chk=tdp_preopt_charge.chk
# B3LYP/6-31G(d) Opt Freq

tdp chromophore opt freq charges B3LYP/6-31G(d)

-1  1
C
C  1  r2
O  2  r3  1  a3
H  1  r4  2  a4  3  d4
H  1  r5  2  a5  3  d5
H  1  r6  2  a6  3  d6
N  3  r7  2  a7  1  d7
C  7  r8  3  a8  2  d8
H  7  r9  3  a9  2  d9
H  8  r10  7  a10  3  d10
H  8  r11  7  a11  3  d11
H  8  r12  7  a12  3  d12
N  2  r13  1  a13  3  d13
C  13  r14  2  a14  1  d14
C  14  r15  13  a15  2  d15
O  15  r16  14  a16  13  d16
C  7  r17  3  a17  2  d17
O  17  r18  7  a18  3  d18
C  17  r19  7  a19  3  d19
C  14  r20  13  a20  2  d20
N  20  r21  14  a21  13  d21
C  21  r22  20  a22  14  d22
O  22  r23  21  a23  20  d23
N  20  r24  14  a24  13  d24
C  24  r25  20  a25  14  d25
C  25  r26  24  a26  20  d26
C  26  r27  25  a27  24  d27
C  27  r28  26  a28  25  d28
C  27  r29  26  a29  25  d29
C  28  r30  27  a30  26  d30
C  29  r31  27  a31  26  d31
C  30  r32  28  a32  27  d32
O  32  r33  30  a33  28  d33
H  13  r34  2  a34  1  d34
H  14  r35  13  a35  2  d35
H  15  r36  14  a36  13  d36
H  15  r37  14  a37  13  d37
H  16  r38  15  a38  14  d38
H  19  r39  17  a39  7  d39
H  19  r40  17  a40  7  d40
H  26  r41  25  a41  24  d41
H  28  r42  27  a42  26  d42
H  29  r43  27  a43  26  d43
H  30  r44  28  a44  27  d44
H  31  r45  29  a45  27  d45
Variables:
r2= 1.5189
r3= 1.2251
a3= 122.14
r4= 1.0941
a4= 113.66
d4= 189.05
r5= 1.0952
a5= 108.90
d5=  67.39
r6= 1.0934
a6= 108.59
d6= 310.78
r7= 4.7993
a7= 107.34
d7= 186.82
r8= 1.4554
a8= 134.73
d8= 239.60
r9= 1.0126
a9=  76.14
d9= 354.60
r10= 1.0941
a10= 110.41
d10= 330.82
r11= 1.0960
a11= 111.25
d11= 211.09
r12= 1.0921
a12= 108.42
d12=  90.93
r13= 1.3750
a13= 115.44
d13= 179.32
r14= 1.4563
a14= 121.56
d14= 174.34
r15= 1.5433
a15= 110.82
d15= 141.34
r16= 1.4245
a16= 110.95
d16= 169.18
r17= 1.3584
a17=  61.72
d17= 133.82
r18= 1.2248
a18= 123.01
d18= 128.00
r19= 1.5405
a19= 118.20
d19= 310.70
r20= 1.5122
a20= 112.03
d20= 263.55
r21= 1.3849
a21= 123.29
d21= 106.22
r22= 1.4082
a22= 107.79
d22= 178.97
r23= 1.2245
a23= 123.83
d23= 179.47
r24= 1.3013
a24= 122.55
d24= 284.09
r25= 1.4113
a25= 106.49
d25= 180.77
r26= 1.3665
a26= 119.49
d26= 180.80
r27= 1.4459
a27= 134.26
d27= 180.27
r28= 1.4168
a28= 117.02
d28= 180.17
r29= 1.4141
a29= 125.42
d29=   0.20
r30= 1.3841
a30= 122.00
d30= 180.03
r31= 1.3874
a31= 120.68
d31= 179.96
r32= 1.4019
a32= 119.32
d32=   0.02
r33= 1.3599
a33= 117.39
d33= 179.99
r34= 1.0119
a34= 118.73
d34=  14.08
r35= 1.0907
a35= 105.97
d35=  22.96
r36= 1.0928
a36= 109.52
d36= 287.39
r37= 1.0979
a37= 109.93
d37=  46.39
r38= 0.9732
a38= 105.59
d38= 283.02
r39= 1.0913
a39= 106.39
d39= 218.07
r40= 1.0953
a40= 108.33
d40= 101.71
r41= 1.0898
a41= 111.85
d41=   0.34
r42= 1.0873
a42= 118.97
d42=   0.03
r43= 1.0838
a43= 119.34
d43= 359.95
r44= 1.0850
a44= 121.57
d44= 180.00
r45= 1.0887
a45= 119.69
d45= 180.01


--Link1--
%Mem=5GB
%NprocShared=8
%RWF=tdp_preopt_charge
%NoSave
%Chk=tdp_preopt_charge.chk
#P B3LYP/6-31G(d) Geom=AllCheck Guess=Read Pop=MK IOp(6/50=1)

tdp_opt.resp
